100 15008994
20 69 86 64 23 5 87 90 55 99 93 12 16 7 65 1 97 81 37 14 17 34 85 46 58 52 41 33 92 80 68 0 98
48 73 70 27 74 22 40 47 89 29 66 21 35 45 95 38 62 43 30 8 83 19 51 10 82 75 61 84 56 18 77 78
54 15 88 28 71 39 36 25 63 32 57 9 49 13 50 3 72 91 79 6 96 4 44 24 26 59 76 53 31 67 94 42 60
11 2
